SCIP Status        : solving was interrupted [time limit reached]
Total Time         :    3600.01
  solving          :    3600.00
  presolving       :       0.38 (included in solving)
  reading          :       0.01
  copying          :       1.35 (46 #copies) (minimal 0.00, maximal 0.10, average 0.03)
Original Problem   :
  Problem name     : bbbenchmark/g05_100.6.cut
  Variables        : 101 (100 binary, 0 integer, 0 implicit integer, 1 continuous)
  Constraints      : 1 initial, 1 maximal
  Objective        : minimize, 1 non-zeros (abs.min = 1, abs.max = 1)
Presolved Problem  :
  Problem name     : t_bbbenchmark/g05_100.6.cut
  Variables        : 1869 (100 binary, 0 integer, 1754 implicit integer, 15 continuous)
  Constraints      : 1797 initial, 9952 maximal
  Objective        : minimize, 1 non-zeros (abs.min = 1, abs.max = 1)
  Nonzeros         : 8643 constraint, 202 clique table
Presolvers         :   ExecTime  SetupTime  Calls  FixedVars   AggrVars   ChgTypes  ChgBounds   AddHoles    DelCons    AddCons   ChgSides   ChgCoefs
  boundshift       :       0.00       0.00      0          0          0          0          0          0          0          0          0          0
  convertinttobin  :       0.00       0.00      0          0          0          0          0          0          0          0          0          0
  domcol           :       0.00       0.00      1          0          0          0          0          0          0          0          0          0
  dualagg          :       0.00       0.00      0          0          0          0          0          0          0          0          0          0
  dualcomp         :       0.00       0.00      1          0          0          0          0          0          0          0          0          0
  dualinfer        :       0.00       0.00      0          0          0          0          0          0          0          0          0          0
  dualsparsify     :       0.00       0.00      1          0          0          0          0          0          0          0          0          0
  gateextraction   :       0.00       0.00      0          0          0          0          0          0          0          0          0          0
  implics          :       0.00       0.00      2          0          0          0          0          0          0          0          0          0
  inttobinary      :       0.00       0.00      0          0          0          0          0          0          0          0          0          0
  qpkktref         :       0.00       0.00      0          0          0          0          0          0          0          0          0          0
  redvub           :       0.00       0.00      0          0          0          0          0          0          0          0          0          0
  sparsify         :       0.00       0.00      1          0          0          0          0          0          0          0          0          0
  stuffing         :       0.00       0.00      0          0          0          0          0          0          0          0          0          0
  trivial          :       0.00       0.00      4          0          0          0          0          0          0          0          0          0
  tworowbnd        :       0.00       0.00      0          0          0          0          0          0          0          0          0          0
  dualfix          :       0.00       0.00      4          0          0          0          0          0          0          0          0          0
  genvbounds       :       0.00       0.00      0          0          0          0          0          0          0          0          0          0
  probing          :       0.31       0.00      1          0          0          0          0          0          0          0          0          0
  pseudoobj        :       0.00       0.00      1          0          0          0          1          0          0          0          0          0
  symmetry         :       0.00       0.00      0          0          0          0          0          0          0          0          0          0
  vbounds          :       0.00       0.00      1          0          0          0          0          0          0          0          0          0
  varbound         :       0.00       0.00      2          0          0          0          0          0          0          0          0          0
  and              :       0.01       0.00      2          0          0          0          0          0          0          0          0          0
  linear           :       0.00       0.00      2          0          0          0          0          0          0          0          0          0
  logicor          :       0.00       0.00      0          0          0          0          0          0          0          0          0          0
  bounddisjunction :       0.00       0.00      0          0          0          0          0          0          0          0          0          0
  nonlinear        :       0.06       0.01      5          0          0          0          1          0          0       1796          0          0
  benders          :       0.00       0.00      0          0          0          0          0          0          0          0          0          0
  components       :       0.00       0.00      1          0          0          0          0          0          0          0          0          0
  root node        :          -          -      -          0          -          -         14          -          -          -          -          -
Constraints        :     Number  MaxNumber  #Separate #Propagate    #EnfoLP    #EnfoRelax  #EnfoPS    #Check   #ResProp    Cutoffs    DomReds       Cuts    Applied      Conss   Children
  benderslp        :          0          0          0          0      93170          0          0       6130          0          0          0          0          0          0          0
  integral         :          0          0          0          0      93170          0          0       6130          0          0        712          0          0        595     185420
  varbound         :         14         14        116     615085          0          0          0         34          0          0      59009          0          0          0          0
  and              :       1754       1754     106715     674882          3          0          0         34     495738          1     849154        372        366          0          0
  linear           :         29+        50        116     674936          3          0          0         32       1454          8     296431          0          0          0          0
  logicor          :          0+      6380          0     106641          0          0          0          0         82        341         65          0          0          0          0
  bounddisjunction :          0+      1781          0      61347          0          0          0          0          7         98          5          0          0          0          0
  benders          :          0          0          0          0          3          0          0         28          0          0          0          0          0          0          0
  countsols        :          0          0          0          0          3          0          0         28          0          0          0          0          0          0          0
  components       :          0          0          0          0          0          0          0          0          0          0          0          0          0          0          0
Constraint Timings :  TotalTime  SetupTime   Separate  Propagate     EnfoLP     EnfoPS     EnfoRelax   Check    ResProp    SB-Prop
  benderslp        :       0.08       0.00       0.00       0.00       0.08       0.00       0.00       0.00       0.00       0.00
  integral         :      61.86       0.00       0.00       0.00      61.84       0.00       0.00       0.02       0.00       0.00
  varbound         :       1.29       0.00       0.00       1.27       0.00       0.00       0.00       0.00       0.00       0.02
  and              :     105.08       0.00      70.56      33.54       0.00       0.00       0.00       0.01       0.45       0.52
  linear           :       4.24       0.00       0.05       4.12       0.00       0.00       0.00       0.00       0.01       0.06
  logicor          :      10.25       0.00       0.00      10.25       0.00       0.00       0.00       0.00       0.00       0.00
  bounddisjunction :       3.53       0.00       0.00       3.53       0.00       0.00       0.00       0.00       0.00       0.00
  benders          :       0.00       0.00       0.00       0.00       0.00       0.00       0.00       0.00       0.00       0.00
  countsols        :       0.00       0.00       0.00       0.00       0.00       0.00       0.00       0.00       0.00       0.00
  components       :       0.17       0.00       0.00       0.17       0.00       0.00       0.00       0.00       0.00       0.00
Propagators        : #Propagate   #ResProp    Cutoffs    DomReds
  dualfix          :          4          0          0          0
  genvbounds       :          0          0          0          0
  nlobbt           :          0          0          0          0
  obbt             :          0          0          0          0
  probing          :          0          0          0          0
  pseudoobj        :     389161          0          0         34
  redcost          :     209238          0          0      66808
  rootredcost      :         18          0          0          0
  symmetry         :          0          0          0          0
  vbounds          :     107692          0          0          0
Propagator Timings :  TotalTime  SetupTime   Presolve  Propagate    ResProp    SB-Prop
  dualfix          :       0.00       0.00       0.00       0.00       0.00       0.00
  genvbounds       :       0.70       0.00       0.00       0.70       0.00       0.00
  nlobbt           :       0.00       0.00       0.00       0.00       0.00       0.00
  obbt             :       0.01       0.00       0.00       0.01       0.00       0.00
  probing          :       0.31       0.00       0.31       0.00       0.00       0.00
  pseudoobj        :       0.65       0.00       0.00       0.64       0.00       0.01
  redcost          :      14.96       0.00       0.00      14.95       0.00       0.01
  rootredcost      :       0.66       0.00       0.00       0.66       0.00       0.00
  symmetry         :       0.33       0.00       0.00       0.33       0.00       0.00
  vbounds          :       0.69       0.00       0.00       0.69       0.00       0.00
Conflict Analysis  :       Time      Calls    Success    DomReds  Conflicts   Literals    Reconvs ReconvLits   Dualrays   Nonzeros   LP Iters   (pool size: [10000,10000])
  propagation      :       0.02        440        345          -        421       64.9          0        0.0          -          -          -
  infeasible LP    :       0.07         51         51          -       1986      144.2          0        0.0        146      152.8          0
  bound exceed. LP :      21.45       6002       5580          -     141863      113.6          0        0.0          0        0.0      49383
  strong branching :       0.00          0          0          -          0        0.0          0        0.0          -          -          0
  pseudo solution  :       0.00          0          0          -          0        0.0          0        0.0          -          -          -
  applied globally :       0.86          -          -          0      30991      121.5          -          -        146          -          -
  applied locally  :          -          -          -          0          0        0.0          -          -          0          -          -
Separators         :   ExecTime  SetupTime      Calls  RootCalls    Cutoffs    DomReds  FoundCuts ViaPoolAdd  DirectAdd    Applied ViaPoolApp  DirectApp      Conss
  cut pool         :       7.15          -      23640        144          -          -      34524    2049198          -          -          -          -          -    (maximal pool size:       4730)
  aggregation      :     296.78       0.00       4705        116          0          0         25         52          0          9          9          0          0
  > cmir           :          -          -          -          -          -          -          -         52          0          9          9          0          -
  > flowcover      :          -          -          -          -          -          -          -          0          0          0          0          0          -
  > knapsackcover  :          -          -          -          -          -          -          -          0          0          0          0          0          -
  cgmip            :       0.00       0.00          0          0          0          0          0          0          0          0          0          0          0
  clique           :       0.00       0.00        116        116          0          0          0          0          0          0          0          0          0
  closecuts        :       0.00       0.00          0          0          0          0          0          0          0          0          0          0          0
  convexproj       :       0.00       0.00          0          0          0          0          0          0          0          0          0          0          0
  disjunctive      :       0.00       0.00          0          0          0          0          0          0          0          0          0          0          0
  eccuts           :       0.00       0.00          0          0          0          0          0          0          0          0          0          0          0
  gauge            :       0.00       0.00          0          0          0          0          0          0          0          0          0          0          0
  gomory           :       0.00       0.00          0          0          0          0          0          0          0          0          0          0          0
  > gomorymi       :          -          -          -          -          -          -          -          0          0          0          0          0          -
  > strongcg       :          -          -          -          -          -          -          -          0          0          0          0          0          -
  impliedbounds    :       0.34       0.00       4705        116          0          0          0          0          0          0          0          0          0
  interlattice     :       0.31       0.00         40         40          0          0         40          0         40         39          0         39          0
  interminor       :       0.00       0.00          0          0          0          0          0          0          0          0          0          0          0
  intersub         :       1.12       0.00         40         40          0          0         40          0         40         40          0         40          0
  intobj           :       0.00       0.00          0          0          0          0          0          0          0          0          0          0          0
  mcf              :       0.00       0.00          1          1          0          0          0          0          0          0          0          0          0
  minor            :       0.00       0.00          0          0          0          0          0          0          0          0          0          0          0
  mixing           :       0.02       0.00       4705        116          0          0          0          0          0          0          0          0          0
  oddcycle         :       0.00       0.00          0          0          0          0          0          0          0          0          0          0          0
  rapidlearning    :       0.02       0.00          0          0          0          0          0          0          0          0          0          0          0
  rlt              :       0.00       0.00         10         10          0          0          0          0          0          0          0          0          0
  zerohalf         :      37.21       0.00       4163         20          0          0      34499    2049146          0     172778     172778          0          0
Cutselectors       :   ExecTime  SetupTime      Calls  RootCalls   Selected     Forced   Filtered  RootSelec   RootForc   RootFilt 
  hybrid           :       2.32       0.00      12174        114     173232          0    1876418        280          0         15
Pricers            :   ExecTime  SetupTime      Calls       Vars
  problem variables:       0.00          -          0          0
Branching Rules    :   ExecTime  SetupTime   BranchLP  BranchExt   BranchPS    Cutoffs    DomReds       Cuts      Conss   Children
  allfullstrong    :       0.00       0.00          0          0          0          0          0          0          0          0
  cloud            :       0.00       0.00          0          0          0          0          0          0          0          0
  distribution     :       0.00       0.00          0          0          0          0          0          0          0          0
  fullstrong       :       0.00       0.00          0          0          0          0          0          0          0          0
  inference        :       0.00       0.00          0          0          0          0          0          0          0          0
  leastinf         :       0.00       0.00          0          0          0          0          0          0          0          0
  lookahead        :       0.00       0.00          0          0          0          0          0          0          0          0
  mostinf          :       0.00       0.00          0          0          0          0          0          0          0          0
  multaggr         :       0.00       0.00          0          0          0          0          0          0          0          0
  nodereopt        :       0.00       0.00          0          0          0          0          0          0          0          0
  pscost           :       0.00       0.00          0          0          0          0          0          0          0          0
  random           :       0.00       0.00          0          0          0          0          0          0          0          0
  relpscost        :      61.52       0.00      93167          0          0          0        712          0        595     185420
  vanillafullstrong:       0.00       0.00          0          0          0          0          0          0          0          0
Primal Heuristics  :   ExecTime  SetupTime      Calls      Found       Best
  LP solutions     :       0.00          -          -          3          3
  relax solutions  :       0.00          -          -          0          0
  pseudo solutions :       0.00          -          -          0          0
  strong branching :       0.02          -          -          0          0
  actconsdiving    :       0.00       0.00          0          0          0
  adaptivediving   :       4.74       0.00         27          0          0
  alns             :       2.94       0.00         22          5          5
  bound            :       0.00       0.00          0          0          0
  clique           :       0.01       0.00          1          0          0
  coefdiving       :       0.00       0.00          0          0          0
  completesol      :       0.00       0.00          0          0          0
  conflictdiving   :     166.80       0.00       1156          4          4
  crossover        :       5.92       0.00          4          1          1
  dins             :       0.00       0.00          0          0          0
  distributiondivin:      75.25       0.00        301          0          0
  dps              :       0.00       0.00          0          0          0
  dualval          :       0.00       0.00          0          0          0
  farkasdiving     :       0.01       0.00          0          0          0
  feaspump         :       0.38       0.00          1          1          1
  fixandinfer      :       0.00       0.00          0          0          0
  fracdiving       :      56.27       0.00        430          0          0
  gins             :       0.14       0.00          0          0          0
  guideddiving     :      56.00       0.00        424          0          0
  indicator        :       0.11       0.00          0          0          0
  indicatordiving  :       0.00       0.00          0          0          0
  intdiving        :       0.00       0.00          0          0          0
  intshifting      :       0.72       0.00         75          0          0
  linesearchdiving :      52.71       0.00        382          0          0
  localbranching   :       0.00       0.00          0          0          0
  locks            :       0.01       0.00          1          0          0
  lpface           :       0.15       0.00          0          0          0
  mpec             :     125.89       0.00         11          5          5
  multistart       :       0.00       0.00          0          0          0
  mutation         :       0.00       0.00          0          0          0
  nlpdiving        :      18.79       0.00          2          0          0
  objpscostdiving  :      33.09       0.00         36          2          0
  octane           :       0.00       0.00          0          0          0
  ofins            :       0.08       0.00          0          0          0
  oneopt           :       0.09       0.00         22          0          0
  padm             :       0.00       0.00          0          0          0
  proximity        :       0.00       0.00          0          0          0
  pscostdiving     :      56.86       0.00        350          2          2
  randrounding     :       0.83       0.00       6099          0          0
  rens             :       0.00       0.00          0          0          0
  reoptsols        :       0.00       0.00          0          0          0
  repair           :       0.00       0.00          0          0          0
  rins             :       3.09       0.00         21          0          0
  rootsoldiving    :      30.53       0.00         30          0          0
  rounding         :       1.33       0.00       4407          0          0
  shiftandpropagate:       0.00       0.00          0          0          0
  shifting         :      38.85       0.00       7792          2          2
  simplerounding   :       0.13       0.00          0          0          0
  subnlp           :     169.34       0.00          0          0          0
  trivial          :       0.00       0.00          2          2          2
  trivialnegation  :       0.00       0.00          0          0          0
  trustregion      :       0.00       0.00          0          0          0
  trysol           :       0.19       0.00          0          0          0
  twoopt           :       0.00       0.00          0          0          0
  undercover       :       2.01       0.00          1          1          1
  vbounds          :       0.00       0.00          0          0          0
  veclendiving     :      55.77       0.00        388          0          0
  zeroobj          :       0.00       0.00          0          0          0
  zirounding       :       0.45       0.00       1000          0          0
  other solutions  :          -          -          -          0          -
Diving (single)    :      Calls      Nodes   LP Iters Backtracks  Conflicts   MinDepth   MaxDepth   AvgDepth  RoundSols  NLeafSols  MinSolDpt  MaxSolDpt  AvgSolDpt
  actconsdiving    :          0          -          -          -          -          -          -          -          -          -          -          -          -
  coefdiving       :          0          -          -          -          -          -          -          -          -          -          -          -          -
  conflictdiving   :       1156      53545    1436525        969      67444         55         93       66.9          0          4         67         87       76.8
  distributiondivin:        301      11682     483166        354       5555         51         70       59.0          0          -          -          -          -
  farkasdiving     :          0          -          -          -          -          -          -          -          -          -          -          -          -
  fracdiving       :        430      40444     474269        134       2155         58        247      115.2          0          -          -          -          -
  guideddiving     :        424      38460     476849        167       6247         57        233      111.8          0          -          -          -          -
  indicatordiving  :          0          -          -          -          -          -          -          -          -          -          -          -          -
  linesearchdiving :        382      15695     478136        355      21864         49         93       61.6          0          -          -          -          -
  pscostdiving     :        350      16920     507309        362      10335         56         85       68.1          0          2         67         85       76.0
  veclendiving     :        388      16906     478019        366      27049         55         92       63.4          0          -          -          -          -
Diving (adaptive)  :      Calls      Nodes   LP Iters Backtracks  Conflicts   MinDepth   MaxDepth   AvgDepth  RoundSols  NLeafSols  MinSolDpt  MaxSolDpt  AvgSolDpt
  actconsdiving    :          3        128       4807          3         36         54         60       57.3          0          -          -          -          -
  coefdiving       :          7        301       8324          8        533         56         90       63.3          0          -          -          -          -
  conflictdiving   :          0          -          -          -          -          -          -          -          -          -          -          -          -
  distributiondivin:          0          -          -          -          -          -          -          -          -          -          -          -          -
  farkasdiving     :          0          -          -          -          -          -          -          -          -          -          -          -          -
  fracdiving       :          0          -          -          -          -          -          -          -          -          -          -          -          -
  guideddiving     :          2        203       2685          1         43        113        123      118.0          0          -          -          -          -
  indicatordiving  :          0          -          -          -          -          -          -          -          -          -          -          -          -
  linesearchdiving :          5        221       6663          3        271         53         75       63.6          0          -          -          -          -
  pscostdiving     :          3        162       4767          3         97         69         73       70.7          0          -          -          -          -
  veclendiving     :          7        332       9076          6        523         57         74       64.4          0          -          -          -          -
Neighborhoods      :      Calls  SetupTime  SolveTime SolveNodes       Sols       Best       Exp3  EpsGreedy        UCB TgtFixRate  Opt  Inf Node Stal  Sol  Usr Othr Actv
  rens             :          3       0.11       0.17         76          0          0    0.00000   -1.00000    0.45308      0.662    0    2    0    1    0    0    0    1
  rins             :          1       0.00       0.00          0          0          0    0.00000   -1.00000    0.07083      0.900    0    0    0    0    0    0    1    1
  mutation         :          2       0.05       0.10         78          0          0    0.00000   -1.00000    0.46125      0.850    0    1    0    1    0    0    0    1
  localbranching   :          8       0.55       0.78       1528          5          5    0.00000   -1.00000    0.49329      0.873    0    2    0    5    1    0    0    1
  crossover        :          3       0.12       0.45         88          0          0    0.00000   -1.00000    0.42848      0.662    0    2    0    1    0    0    0    1
  proximity        :          2       0.15       0.18        135          0          0    0.00000   -1.00000    0.44458      0.850    0    1    0    1    0    0    0    1
  zeroobjective    :          2       0.05       0.08         68          0          0    0.00000   -1.00000    0.46489      0.850    0    1    0    1    0    0    0    1
  dins             :          1       0.00       0.00          0          0          0    0.00000   -1.00000    0.07083      0.900    0    0    0    0    0    0    1    1
  trustregion      :          0       0.00       0.00          0          0          0    0.00000   -1.00000    1.00000      0.900    0    0    0    0    0    0    0    0
Expressions        :   #IntEval  IntEvalTi   #RevProp  RevPropTi    DomReds    Cutoffs  #Estimate  EstimTime  Branching  #Simplify SimplifyTi Simplified
  pow              :          0       0.00          0       0.00          0          0          0       0.00          0          0       0.00          0
  prod             :       9900       0.01          0       0.00          0          0          0       0.00          0       6704       0.01          0
  sum              :          8       0.00          2       0.00          0          0          0       0.00          0          3       0.00          2
  var              :       6416       0.01          0       0.00          0          0          0       0.00          0      15479       0.00          0
  varidx           :          0       0.00          0       0.00          0          0          0       0.00          0          0       0.00          0
LP                 :       Time      Calls Iterations  Iter/call   Iter/sec  Time-0-It Calls-0-It    ItLimit
  primal LP        :     140.12      14506          0       0.00       0.00     140.10      14506
  dual LP          :    1779.78     164176    9306987      60.65    5229.29       5.28      10720
  lex dual LP      :       0.00          0          0       0.00          -
  barrier LP       :       0.00          0          0       0.00          -       0.00          0
  resolve instable :       0.00          0          0       0.00          -
  diving/probing LP:     496.82      15603    4695003     300.90    9450.11
  strong branching :      24.33       1764     164609      93.32    6765.68          -          -        119
    (at root node) :          -         19       8087     425.63          -
  conflict analysis:       8.38       5070      49383       9.74    5892.96
NLP relaxation     :
  solve time       :      18.21 (8 calls)
  convexity        :  nonconvex (43 linear rows, 0 convex ineq., 0 nonconvex ineq., 1754 nonlinear eq. or two-sided ineq.)
NLP Solvers        :  #Problems  ProblemTi    #Solves  SolveTime      #Iter  Time/Iter      #Okay #TimeLimit #IterLimit #LObjLimit #Interrupt  #NumError #EvalError  #OutOfMem #LicenseEr #OtherTerm   #GlobOpt    #LocOpt  #Feasible #LocInfeas #GlobInfea #Unbounded   #Unknown
  ipopt            :         12       7.53         45     148.68       1881       0.08         44          0          1          0          0          0          0          0          0          0          0         33          1          9          0          0          2
B&B Tree           :
  number of runs   :          1
  nodes            :     140841 (92710 internal, 48131 leaves)
  feasible leaves  :          3
  infeas. leaves   :         18
  objective leaves :      48109
  nodes (total)    :     140841 (92710 internal, 48131 leaves)
  nodes left       :      44383
  max depth        :         63
  max depth (total):         63
  backtracks       :      31209 (22.2%)
  early backtracks :          0 (0.0%)
  nodes exc. ref.  :          0 (0.0%)
  delayed cutoffs  :          4
  repropagations   :        132 (361 domain reductions, 1 cutoffs)
  avg switch length:       6.60
  switching time   :     182.78
Estim. Tree Size   :     282076
Estimation Tree    : 185421 nodes (141038 visited, 92710 internal, 48328 leaves, 44383 open), weight: 0.0000 completed 0.1114
Estimations        :      estim      value      trend resolution     smooth
  wbe              : 2060983438367109          -          -          -          -
  tree-profile     :         -1          -          -          -          -
  gap              :    3838811    0.66576    0.00001         64    3771228
  tree-weight      :     282076    0.00000    0.00000         64     281914
  leaf-frequency   :    1451091    0.34266    0.00001         64    1638548
  ssg              :    6507992    0.82407   -0.00002         64    6319257
  open-nodes       :     282076 44383.00000   51.35906         64     281914
Root Node          :
  First LP value   : -1.00000000000000e+00
  First LP Iters   :       1597 (10646.67 Iter/sec)
  First LP Time    :       0.15
  Final Dual Bound : -9.44358818383341e-01
  Final Root Iters :       5984
  Root LP Estimate : -3.52002025091667e-01
Solution           :
  Solutions found  :         28 (26 improvements)
  First Solution   : +1.00000000000000e+05   (in run 1, after 0 nodes, 0.00 seconds, depth 0, found by <trivial>)
  Gap First Sol.   :   infinite
  Gap Last Sol.    :      53.28 %
  Primal Bound     : -5.57979797979795e-01   (in run 1, after 52584 nodes, 1368.34 seconds, depth 33, found by <crossover>)
  Dual Bound       : -8.38112334005143e-01
  Gap              :      50.20 %
Integrals          :      Total       Avg%
  primal-dual      :  127793.49      35.50
  primal-ref       :          -          - (not evaluated)
  dual-ref         :          -          - (not evaluated)
